p edge 48 82
e 1 2
e 1 3
e 2 3
e 2 4
e 3 4
e 3 5
e 4 6
e 4 7
e 5 6
e 5 8
e 5 9
e 6 7
e 7 8
e 7 13
e 7 20
e 7 19
e 8 10
e 9 10
e 9 11
e 9 12
e 10 12
e 10 13
e 11 12
e 11 14
e 12 13
e 12 14
e 13 16
e 13 19
e 14 15
e 14 16
e 15 16
e 15 17
e 16 18
e 17 18
e 17 22
e 18 19
e 18 22
e 19 20
e 19 22
e 20 21
e 21 23
e 22 25
e 22 27
e 23 24
e 24 26
e 24 29
e 24 30
e 24 31
e 24 32
e 25 26
e 26 27
e 27 28
e 27 29
e 28 30
e 28 34
e 29 30
e 30 32
e 31 33
e 31 39
e 32 33
e 33 35
e 33 38
e 34 35
e 34 36
e 35 36
e 35 37
e 36 37
e 37 38
e 37 41
e 38 40
e 39 40
e 40 42
e 41 42
e 41 44
e 41 45
e 42 43
e 42 44
e 43 46
e 44 47
e 45 47
e 46 48
e 47 48
l 48
